c ren 1 -> 1
c ren 2 -> 2
c ren 8 -> 3
c ren 9 -> 4
c ren 11 -> 5
c ren 13 -> 6
c ren 15 -> 7
c ren 23 -> 8
c ren 24 -> 9
c ren 25 -> 10
c ren 28 -> 11
c ren 29 -> 12
c ren 31 -> 13
c ren 33 -> 14
c ren 36 -> 15
c ren 39 -> 16
c ren 40 -> 17
c ren 42 -> 18
c ren 44 -> 19
c ren 46 -> 20
c ren 48 -> 21
c ren 55 -> 22
c ren 58 -> 23
c ren 59 -> 24
c ren 61 -> 25
c ren 65 -> 26
c ren 70 -> 27
c ren 83 -> 28
c ren 84 -> 29
c ren 99 -> 30
c ren 124 -> 31
c ren 134 -> 32
c ren 135 -> 33
c ren 140 -> 34
p cnf 34 135
a 1 2 3 4 5 6 7 9 11 12 13 16 17 18 19 20 21 23 24 25 29 33 34 0
d 14 9 29 0
d 27 1 7 0
d 28 3 29 0
d 30 11 21 0
d 31 16 25 0
d 32 23 33 0
e 8 10 15 22 26 0
-2 8 -10 -14 -15 -17 21 -22 -26 0
-1 2 3 -6 -8 0
-1 2 3 -4 -8 0
-1 2 -3 4 5 6 7 -8 0
-2 9 10 0
-5 8 -10 -14 -15 -17 21 -22 -26 0
2 4 5 6 7 8 -10 14 -15 21 -22 25 -26 29 33 -34 0
-4 8 -10 -14 -15 21 -22 -24 25 -26 0
-5 8 -10 -15 -22 -26 -28 0
-5 8 -10 -15 -22 -26 -32 0
-4 8 -10 -14 -15 -17 21 -22 -26 0
-1 2 3 -5 -8 0
-5 9 10 0
-5 8 -10 -15 -22 -26 -30 0
2 4 5 6 7 8 -10 12 13 -15 17 18 19 20 21 -22 24 25 -26 29 33 34 0
-4 8 -10 -15 -22 -26 -28 0
-4 8 -10 -15 -22 -26 -30 0
2 4 5 6 7 8 -10 12 13 -15 17 18 19 20 21 -22 24 25 -26 29 32 -33 0
-5 8 -10 -15 -22 -26 -31 0
-5 8 -10 -12 -14 -15 -22 -26 0
8 -10 -12 -14 -15 -22 -26 -29 0
2 4 5 6 7 8 -10 12 13 -15 -21 -22 -26 29 30 0
12 13 -14 -16 17 18 19 20 21 22 0
-13 23 26 0
-5 8 -10 -14 -15 -20 21 -22 -26 0
-5 8 -10 -14 -15 -19 21 -22 -26 0
2 4 5 6 7 8 -10 -15 -22 -26 28 -29 0
8 -10 -14 -15 -18 21 -22 -26 -29 0
-6 8 -10 -14 -15 21 -22 -24 25 -26 0
-5 8 -10 -13 -14 -15 -22 -26 0
-6 8 -10 -15 -22 -26 -30 0
-12 16 22 0
-6 8 -10 -13 -14 -15 -22 -26 0
-4 8 -10 -14 -15 -18 21 -22 -26 0
-6 8 -10 -15 -22 -26 -31 0
-17 23 26 0
16 -20 22 0
-6 8 -10 -15 -22 -26 -32 0
-5 8 -10 -14 -15 -18 21 -22 -26 0
-20 23 26 0
-6 9 10 0
-6 8 -10 -14 -15 -20 21 -22 -26 0
-6 8 -10 -14 -15 -19 21 -22 -26 0
23 -25 26 0
-6 8 -10 -14 -15 -18 21 -22 -26 0
-2 8 -10 -14 -15 21 -22 -24 25 -26 0
-4 8 -10 -13 -14 -15 -22 -26 0
-1 2 3 -7 -8 0
-2 8 -10 -14 -15 -19 21 -22 -26 0
-2 8 -10 -14 -15 -18 21 -22 -26 0
-2 8 -10 -14 -15 -20 21 -22 -26 0
1 -2 3 -8 0
8 -10 -15 -21 -22 -26 -31 0
-2 8 -10 -15 -22 -26 -30 0
-2 8 -10 -15 -22 -26 -28 0
8 -10 -14 -15 -20 21 -22 -26 -29 0
-7 8 -10 -14 -15 21 -22 -24 25 -26 0
-6 8 -10 -14 -15 -17 21 -22 -26 0
2 4 5 6 7 8 -10 14 -15 21 -22 -24 25 -26 29 0
-2 8 -10 -13 -14 -15 -22 -26 0
-2 8 -10 -15 -22 -26 -32 0
8 -10 -13 -15 -22 -26 -32 0
-7 8 -10 -14 -15 -17 21 -22 -26 0
-5 8 -10 -14 -15 21 -22 -24 25 -26 0
2 4 5 6 7 -9 10 0
-2 8 -10 -12 -14 -15 -22 -26 0
-2 8 -10 -15 -22 -26 -31 0
8 -10 -12 -15 -22 -26 -30 0
-7 9 10 0
-7 8 -10 -15 -22 -26 -30 0
-2 8 -10 -15 -22 -26 -27 0
8 -10 -15 -19 -22 -26 -32 0
-7 8 -10 -13 -14 -15 -22 -26 0
-7 8 -10 -15 -22 -26 -31 0
-7 8 -10 -15 -22 -26 -32 0
-7 8 -10 -14 -15 -20 21 -22 -26 0
-7 8 -10 -12 -14 -15 -22 -26 0
-11 12 13 -14 15 0
-7 8 -10 -15 -22 -26 -28 0
-7 8 -10 -14 -15 -18 21 -22 -26 0
8 -10 -12 -15 -22 -26 -31 0
8 -10 -15 -19 -22 -26 -31 0
8 -10 12 13 -14 -15 17 18 19 20 21 -22 24 25 -26 33 -34 0
8 -10 -15 -20 -22 -26 -31 0
-4 8 -10 -14 -15 -20 21 -22 -26 0
2 4 5 6 7 8 -10 14 -15 -18 21 -22 -26 29 0
-7 8 -10 -14 -15 -19 21 -22 -26 0
8 -10 -14 -15 21 -22 -24 25 -26 -29 0
-4 9 10 0
14 16 22 0
11 14 15 0
8 -10 -13 -15 -22 -26 -31 0
8 -10 -15 -22 -26 -29 -32 0
-4 8 -10 -12 -14 -15 -22 -26 0
8 -10 -15 -18 -22 -26 -32 0
16 -17 22 0
8 -10 -15 -20 -22 -26 -32 0
8 -10 -14 -15 -19 21 -22 -26 -29 0
8 -10 -15 -22 -26 -29 -31 0
11 -13 15 0
-21 23 26 0
-13 16 22 0
8 -10 -14 -15 -17 21 -22 -26 -29 0
8 -10 -13 -15 -22 -26 -30 0
8 -10 -15 -22 -26 -29 -30 0
-18 23 26 0
11 -12 15 0
-4 8 -10 -14 -15 -19 21 -22 -26 0
2 4 5 6 7 8 -10 14 -15 -19 21 -22 -26 29 0
2 4 5 6 7 8 -10 14 -15 -17 21 -22 -26 29 0
-12 23 26 0
2 4 5 6 7 8 -10 -12 14 -15 -22 -26 29 0
8 -10 -12 -15 -22 -26 -32 0
14 23 26 0
-4 8 -10 -15 -22 -26 -31 0
12 13 -14 17 18 19 20 21 -23 24 25 26 0
16 -18 22 0
2 4 5 6 7 8 -10 14 -15 -20 21 -22 -26 29 0
-6 8 -10 -15 -22 -26 -28 0
8 -10 -15 -21 -22 -26 -32 0
2 -7 8 -10 -15 -22 -26 27 0
-19 23 26 0
-4 8 -10 -15 -22 -26 -32 0
-6 8 -10 -12 -14 -15 -22 -26 0
2 4 5 6 7 8 -10 -13 14 -15 -22 -26 29 0
8 -10 -15 -18 -22 -26 -31 0
2 4 5 6 7 8 -10 12 13 -15 17 18 19 20 21 -22 -25 -26 29 31 0
16 -19 22 0
8 -10 -15 -17 -22 -26 -31 0
8 -10 -15 -17 -22 -26 -32 0
8 -10 -13 -14 -15 -22 -26 -29 0
16 -21 22 0
8 -10 -15 -22 -25 -26 -32 0
8 -10 -15 -22 -24 -26 -32 0
23 -24 26 0
